ilp_joint_2/output/transpiration_ilp.lp
Maximize
 
Subject To
 constraint2_30: <= 1
 constraint2_31: <= 1
 constraint2_32: <= 1
 constraint2_33: <= 1
Bounds
End
