ilp_joint_2/output/transpiration_ilp.mps
NAME transpiration_srl_ilp
* Max problem is converted into Min one
ROWS
 N  OBJ
 L  constraint2_30
 L  constraint2_31
 L  constraint2_32
 L  constraint2_33
COLUMNS
RHS
    RHS1      constraint2_30  1
    RHS1      constraint2_31  1
    RHS1      constraint2_32  1
    RHS1      constraint2_33  1
BOUNDS
ENDATA
