ilp_joint_2/output/transpiration_ilp.sol
# Solution for model transpiration_srl_ilp
# Objective value = 0
